g3 0 1 0	# problem stub
 8 8 1 0 0	# vars, constraints, objectives, ranges, eqns
 8 1	# nonlinear constraints, objectives
 0 0	# network constraints: nonlinear, linear
 8 8 8	# nonlinear vars in constraints, objectives, both
 0 0 0 1	# linear network variables; functions; arith, flags
 0 0 0 0 0	# discrete variables: binary, integer, nonlinear (b,c,o)
 64 8	# nonzeros in Jacobian, gradients
 0 0	# max name lengths: constraints, variables
 0 0 0 0 0	# common exprs: b,c,o,c1,o1
C0
o54
8
o2
o2
n1.41
v0
v4
o2
o2
n1.72
v0
v5
o2
o2
n1.57
v0
v7
o16
o2
o2
n0.88
v1
v5
o2
o2
n1.78
v2
v4
o16
o2
o2
n1.08
v3
v4
o16
o2
o2
n1.43
v3
v5
o2
o2
n1.75
v3
v7
C1
o54
7
o2
o2
n0.56
v1
v7
o16
o2
o2
n1.83
v1
v6
o16
o2
o2
n1.25
v0
v6
o16
o2
o2
n1.4
v2
v5
o16
o2
o2
n0.31
v2
v7
o2
o2
n0.93
v3
v4
o2
o2
n0.24
v3
v7
C2
o54
8
o2
o2
n1.96
v0
v7
o16
o2
o2
n0.97
v0
v5
o16
o2
o2
n1.53
v1
v4
o16
o2
o2
n0.23
v1
v6
o2
o2
n1.34
v1
v7
o2
o2
n0.26
v2
v4
o16
o2
o2
n0.16
v2
v7
o2
o2
n0.81
v3
v7
C3
o54
8
o2
o2
n1.88
v0
v4
o2
o2
n1.05
v0
v7
o16
o2
o2
n1.95
v1
v4
o16
o2
o2
n1.06
v1
v6
o2
o2
n1.24
v2
v6
o2
o2
n0.79
v3
v6
o16
o2
o2
n0.29
v3
v4
o2
o2
n0.77
v3
v7
C4
o54
8
o2
o2
n-0.75
v0
v5
o16
o2
o2
n1.13
v0
v7
o2
o2
n0.12
v1
v4
o16
o2
o2
n1.47
v1
v5
o2
o2
n1.3
v2
v5
o16
o2
o2
n1.22
v2
v6
o2
o2
n1.51
v3
v4
o16
o2
o2
n1.83
v3
v7
C5
o54
8
o2
o2
n0.09
v0
v4
o2
o2
n0.26
v0
v5
o2
o2
n1.37
v0
v6
o2
o2
n1.52
v1
v5
o16
o2
o2
n1.63
v1
v6
o2
o2
n0.88
v2
v5
o16
o2
o2
n1.79
v2
v6
o2
o2
n0.28
v3
v5
C6
o16
o54
8
o16
o2
o2
n-1.7
v0
v5
o2
o2
n0.18
v0
v6
o2
o2
n1.09
v1
v6
o2
o2
n1.46
v1
v7
o2
o2
n1.72
v2
v4
o2
o2
n1.09
v3
v5
o2
o2
n1.67
v3
v6
o2
o2
n1.91
v3
v7
C7
o16
o54
8
o16
o2
o2
n-1.06
v1
v6
o2
o2
n1.19
v1
v7
o2
o2
n1.96
v0
v7
o16
o2
o2
n1.93
v2
v4
o2
o2
n0.32
v2
v5
o2
o2
n0.24
v3
v5
o2
o2
n0.85
v3
v6
o2
o2
n0.21
v3
v7
O0 0
o16
o54
8
o16
o2
o2
n-1.04
v0
v5
o2
o2
n0.93
v0
v7
o2
o2
n1.11
v1
v5
o2
o2
n1.52
v1
v6
o16
o2
o2
n1.26
v2
v6
o2
o2
n1.6
v2
v4
o2
o2
n1.62
v2
v7
o16
o2
o2
n1.43
v3
v4
r
1 48.14
1 22.3
1 52.73
1 75.04
1 76.59
1 73.3
1 43.03
1 63.61
b
0 0 1
0 0 1
0 0 1
0 0 1
0 0 1
0 0 1
0 0 1
0 0 1
k7
8
16
24
32
40
48
56
J0 8
0 -0.18
1 0.77
2 -0.5
3 -0.55
4 0.58
5 -0.61
6 -0.17
7 0.21
J1 8
0 0.88
1 0.67
2 -0.37
3 -0.26
4 0.39
5 -0.34
6 -0.13
7 -0.3
J2 8
0 1
1 0.01
2 0.43
3 0.14
4 0.77
5 0.57
6 -0.54
7 -0.09
J3 8
0 -0.75
1 0.6
2 0.84
3 0.99
4 -0.71
5 -0.05
6 -0.73
7 -0.86
J4 8
0 -0.84
1 0.9
2 0.25
3 -0.25
4 -0.15
5 0.09
6 -0.4
7 -0.2
J5 8
0 -0.71
1 -0.83
2 0.63
3 -0.21
4 0.58
5 0.41
6 -0.27
7 0.23
J6 8
0 0.36
1 0.67
2 0.92
3 -0.33
4 -0.51
5 -0.14
6 -0.24
7 -0.43
J7 8
0 -0.88
1 0.79
2 -0.01
3 -0.08
4 0.55
5 0.66
6 0.62
7 0.78
G0 8
0 0.21
1 -0.75
2 0.93
3 0.88
4 0.35
5 0.67
6 0.74
7 0.92
